Set parameter Username
Set parameter Threads to value 1
Academic license - for non-commercial use only - expires 2022-07-11
Set parameter TimeLimit to value 300
Gurobi Optimizer version 9.5.1 build v9.5.1rc2 (linux64)
Thread count: 2 physical cores, 4 logical processors, using up to 1 threads
Optimize a model with 1006 rows, 905 columns and 4295 nonzeros
Model fingerprint: 0xc1583b39
Variable types: 40 continuous, 865 integer (865 binary)
Coefficient statistics:
  Matrix range     [1e-01, 4e+02]
  Objective range  [2e-02, 5e-01]
  Bounds range     [1e+00, 1e+00]
  RHS range        [1e+00, 9e+02]
Presolve removed 264 rows and 74 columns
Presolve time: 0.04s
Presolved: 742 rows, 831 columns, 3693 nonzeros
Variable types: 39 continuous, 792 integer (792 binary)

Root relaxation: objective 2.254079e+00, 838 iterations, 0.01 seconds (0.01 work units)

    Nodes    |    Current Node    |     Objective Bounds      |     Work
 Expl Unexpl |  Obj  Depth IntInf | Incumbent    BestBd   Gap | It/Node Time

     0     0    2.25408    0   67          -    2.25408      -     -    0s
     0     0    2.35619    0   96          -    2.35619      -     -    0s
H    0     0                       3.5090144    2.35619  32.9%     -    0s
H    0     0                       3.4130035    2.35619  31.0%     -    0s
     0     0    2.35918    0   99    3.41300    2.35918  30.9%     -    0s
     0     0    2.41934    0  105    3.41300    2.41934  29.1%     -    0s
H    0     0                       3.3326135    2.41934  27.4%     -    0s
H    0     0                       3.2265137    2.41934  25.0%     -    0s
     0     0    2.42655    0  127    3.22651    2.42655  24.8%     -    0s
     0     0    2.51908    0   95    3.22651    2.51908  21.9%     -    0s
     0     0    2.53181    0  106    3.22651    2.53181  21.5%     -    0s
     0     0    2.53347    0  105    3.22651    2.53347  21.5%     -    0s
     0     0    2.53436    0   93    3.22651    2.53436  21.5%     -    0s
     0     0    2.53442    0   99    3.22651    2.53442  21.5%     -    0s
     0     0    2.56779    0  101    3.22651    2.56779  20.4%     -    0s
H    0     0                       3.1338369    2.56779  18.1%     -    0s
     0     0    2.59393    0  119    3.13384    2.59393  17.2%     -    0s
     0     0    2.59686    0   91    3.13384    2.59686  17.1%     -    0s
     0     0    2.59744    0   87    3.13384    2.59744  17.1%     -    0s
     0     0    2.59748    0   88    3.13384    2.59748  17.1%     -    0s
     0     0    2.60445    0  105    3.13384    2.60445  16.9%     -    0s
H    0     0                       3.0337754    2.60445  14.2%     -    0s
     0     0    2.60575    0  125    3.03378    2.60575  14.1%     -    0s
     0     0    2.60607    0  132    3.03378    2.60607  14.1%     -    0s
     0     0    2.60609    0  128    3.03378    2.60609  14.1%     -    0s
     0     0    2.61283    0  147    3.03378    2.61283  13.9%     -    0s
     0     0    2.61357    0  130    3.03378    2.61357  13.9%     -    0s
     0     0    2.61410    0  132    3.03378    2.61410  13.8%     -    0s
     0     0    2.61423    0  135    3.03378    2.61423  13.8%     -    0s
     0     0    2.61706    0  117    3.03378    2.61706  13.7%     -    0s
     0     0    2.61835    0  120    3.03378    2.61835  13.7%     -    0s
     0     0    2.61838    0  128    3.03378    2.61838  13.7%     -    0s
     0     0    2.62018    0  130    3.03378    2.62018  13.6%     -    0s
     0     0    2.62092    0  125    3.03378    2.62092  13.6%     -    0s
     0     0    2.62109    0  128    3.03378    2.62109  13.6%     -    0s
     0     0    2.62299    0  119    3.03378    2.62299  13.5%     -    0s
     0     0    2.62389    0  131    3.03378    2.62389  13.5%     -    0s
     0     0    2.62465    0  134    3.03378    2.62465  13.5%     -    0s
     0     0    2.62485    0  158    3.03378    2.62485  13.5%     -    0s
     0     0    2.62642    0  141    3.03378    2.62642  13.4%     -    0s
     0     0    2.62655    0  119    3.03378    2.62655  13.4%     -    0s
     0     0    2.62795    0  144    3.03378    2.62795  13.4%     -    0s
     0     0    2.62795    0  144    3.03378    2.62795  13.4%     -    0s
H    0     0                       2.9866625    2.62937  12.0%     -    1s
     0     2    2.62937    0  144    2.98666    2.62937  12.0%     -    1s
H  182   126                       2.9493101    2.64217  10.4%  62.5    2s
H  301   202                       2.9357986    2.66376  9.27%  69.8    2s
   546   314    2.67544   15  144    2.93580    2.67544  8.87%  63.7    5s
H  571   309                       2.9295519    2.67777  8.59%  68.2    6s
H  676   317                       2.9252786    2.67950  8.40%  76.3    7s
*  785   292              33       2.9220155    2.70054  7.58%  73.8    7s
*  787   273              32       2.9151286    2.70054  7.36%  73.7    7s
H  858   272                       2.9111824    2.71700  6.67%  72.6    8s
H  884   235                       2.8787653    2.71700  5.62%  72.1    8s
  1431   210    2.82259   36   86    2.87877    2.77923  3.46%  65.7   10s

Cutting planes:
  Gomory: 5
  Cover: 20
  Implied bound: 5
  Clique: 2
  MIR: 68
  StrongCG: 1
  Flow cover: 148
  Zero half: 2
  RLT: 16
  Relax-and-lift: 113

Explored 2604 nodes (150191 simplex iterations) in 13.22 seconds (9.46 work units)
Thread count was 1 (of 4 available processors)

Solution count 10: 2.87877 2.91118 2.91513 ... 3.03378

Optimal solution found (tolerance 1.00e-04)
Best objective 2.878765315258e+00, best bound 2.878765315258e+00, gap 0.0000%
